c NeuroCodeBench 2.0 CNF formula with verdict Unsat
p cnf 13 39
-1 8 9 -5 7 3 0
-1 8 9 -5 -7 0
-1 -8 7 -13 0
-1 -8 7 13 5 0
1 12 6 -8 -9 -10 -5 0
-1 8 -9 12 4 3 0
-1 8 -9 12 4 -3 13 0
1 12 -6 13 -11 10 4 0
1 12 -6 -13 -4 0
1 -12 8 5 -2 0
-1 8 9 5 -4 11 0
-1 8 9 5 4 -6 0
-1 8 9 5 4 6 0
1 12 -6 13 -11 -10 0
1 12 -6 -13 4 -3 0
1 12 -6 -13 4 3 0
1 -12 8 5 2 13 0
-1 8 9 5 -4 -11 0
-1 8 9 -5 7 -3 2 0
1 12 6 -8 -9 10 0
1 12 6 8 -3 0
1 12 6 8 3 0
1 12 -6 13 11 0
1 -12 8 -5 2 0
-1 -8 -7 -4 0
-1 8 -9 -12 0
-1 8 -9 12 4 -3 -13 0
1 12 6 -8 9 0
1 -12 -8 0
-1 8 9 -5 7 -3 -2 0
-1 8 -9 12 -4 -6 0
-1 -8 7 13 -5 -9 0
1 12 -6 13 -11 10 -4 0
1 12 6 -8 -9 -10 5 0
-1 8 -9 12 -4 6 0
1 -12 8 5 2 -13 0
1 -12 8 -5 -2 0
-1 -8 7 13 -5 9 0
-1 -8 -7 4 0
